10,0	0,0	13,8	18,3	0,0	0,0	0,0	0,0	0,0	13,9
6,6	17,8	0,0	7,0	13,9	0,0	0,0	7,6	0,0	0,0
0,0	0,0	19,6	0,0	17,9	14,2	0,0	0,0	11,8	0,0
18,1	0,0	6,8	0,0	0,0	0,0	8,9	0,0	0,0	0,0
0,0	6,9	0,0	20,0	10,7	0,0	0,0	5,3	0,0	0,0
0,0	10,8	15,2	0,0	18,2	15,8	0,0	0,0	12,4	0,0
0,0	17,9	0,0	11,3	0,0	0,0	12,8	0,0	0,0	16,9
6,3	0,0	8,7	0,0	0,0	0,0	0,0	0,0	0,0	14,2
0,0	18,9	0,0	7,8	5,6	0,0	0,0	17,9	0,0	0,0
0,0	0,0	9,3	0,0	0,0	5,3	11,1	0,0	0,0	15,9
									
4,2	5,0	3,7	3,6	4,8	4,9	4,2	3,2	4,5	4,5
